peakDumbCharging = 18500; 
Machine = anon_enum(16); 
machineSpeed = [3700,3700,3700,3700,3700,3700,3700,3700,3700,3700,3700,3700,3700,3700,3700,3700]; 
machineLoad = [3700,3700,3700,3700,3700,3700,3700,3700,3700,3700,3700,3700,3700,3700,3700,3700]; 
Car = anon_enum(26); 
demandCar = [1960,4560,1280,1480,2400,19320,7440,3320,10760,3800,3880,10840,3120,19760,2920,8880,7720,2440,16840,920,15760,60680,33080,26400,18720,35440]; 
arrivalCar = [75,70,68,67,67,67,67,62,61,60,59,58,58,56,56,53,49,46,43,39,35,33,30,30,23,21]; 
departureCar = [81,72,70,69,70,75,71,64,66,65,62,67,60,64,59,57,55,47,54,40,45,64,58,43,60,39]; 
